!B3LYP D4 DEF2-SVP OPT FREQ MBIS

%PAL
NPROCS 12 
END

%Method
WriteJSONPropertyfile True
End

%cpcm SMD TRUE
SMDSOLVENT "WATER"
end

*xyz -1 1
    C    0.0000000000        0.0000000000        0.3338600000     
    O    0.0000000000       -1.1287550000       -0.2134920000     
    O    0.0000000000        1.1287550000       -0.2134920000     
    H    0.0000000000        0.0000000000        1.4601580000     
*

