!B3LYP D4 DEF2-SVP OPT FREQ MBIS
%PAL
NPROCS 12 
END

%Method
WriteJSONPropertyfile True
End

%cpcm SMD TRUE
SMDSOLVENT "WATER"
end


*xyz -1 1
    C   -2.9613830000       -0.3086120000        0.0001480000     
    O   -3.2372020000       -1.5382940000       -0.0008700000     
    O   -3.7983160000        0.6343700000        0.0012690000     
    C    3.5769640000        0.1776050000       -0.0001520000     
    C    2.6134500000        1.1574110000       -0.0004380000     
    C    1.2386410000        0.8206080000       -0.0002530000     
    C    0.8634050000       -0.5592820000        0.0002210000     
    C    1.8823390000       -1.5444190000        0.0005270000     
    C    3.2084260000       -1.1851750000        0.0003480000     
    H    0.5017310000        2.8493180000       -0.0009020000     
    H    4.6278630000        0.4482660000       -0.0003010000     
    H    2.8925340000        2.2073210000       -0.0008210000     
    C    0.2157950000        1.8010350000       -0.0005280000     
    C   -0.5103740000       -0.8941850000        0.0003640000     
    H    1.5926640000       -2.5913940000        0.0009080000     
    H    3.9795290000       -1.9491520000        0.0005880000     
    C   -1.4923540000        0.0733410000        0.0001030000     
    C   -1.1067110000        1.4367710000       -0.0003410000     
    H   -0.7980030000       -1.9417070000        0.0007090000     
    H   -1.8854260000        2.1922470000       -0.0005870000     
*

