!B3LYP D4 DEF2-SVP OPT FREQ MBIS
%PAL
NPROCS 12 
END

%Method
WriteJSONPropertyfile True
End

%cpcm SMD TRUE
SMDSOLVENT "WATER"
end

*xyz -1 1
    C   -1.2294600000        0.0370230000        0.0479990000     
    O   -1.2943420000        1.2650860000       -0.2025210000     
    O   -2.1895880000       -0.7392350000        0.2992660000     
    C    0.1410330000       -0.6358160000        0.0629240000     
    H    0.2906730000       -1.1101710000        1.0460920000     
    H    0.1405440000       -1.4527310000       -0.6765920000     
    O    1.1907120000        0.2744540000       -0.2102330000     
    C    2.4527760000       -0.3778310000       -0.1951730000     
    H    2.4571350000       -1.1916900000       -0.9376190000     
    H    2.6148170000       -0.8468570000        0.7884440000     
    C    3.5261330000        0.6326300000       -0.4949930000     
    H    3.5263170000        1.4339140000        0.2483710000     
    H    4.5110730000        0.1611410000       -0.4836160000     
    H    3.3770550000        1.0826250000       -1.4796350000     
*