!B3LYP D4 DEF2-SVP OPT FREQ MBIS

%PAL
NPROCS 12 
END

%Method
WriteJSONPropertyfile True
End

%cpcm SMD TRUE
SMDSOLVENT "WATER"
end

*xyz -1 1
    C   -0.8841740000       -0.0231040000        0.0361810000     
    O   -1.5213320000       -1.0905350000        0.2603160000     
    O   -1.3782630000        1.0325750000       -0.4451110000     
    C    0.6181020000       -0.0402290000        0.3870410000     
    H    0.6675650000       -0.2526560000        1.4650990000     
    C    1.3089100000       -1.1906790000       -0.3377460000     
    H    1.2696600000       -1.0465610000       -1.4237330000     
    H    2.3637340000       -1.2681560000       -0.0566450000     
    H    0.8287150000       -2.1455290000       -0.1130600000     
    C    1.3194430000        1.2793640000        0.1195010000     
    H    0.8507210000        2.1053790000        0.6600850000     
    H    2.3715750000        1.2385590000        0.4192900000     
    H    1.2879630000        1.5306690000       -0.9456290000     
*

