!B3LYP D4 DEF2-SVP OPT FREQ MBIS
%PAL
NPROCS 12 
END

%Method
WriteJSONPropertyfile True
End

%cpcm SMD TRUE
SMDSOLVENT "WATER"
end


*xyz -1 1
    C   -1.2300590000        0.0275790000        0.0791850000     
    O   -1.8010150000       -0.2388250000       -1.0124950000     
    O   -1.7203810000        0.7075890000        1.0201270000     
    C    0.1735630000       -0.5188970000        0.2776450000     
    C    0.8088560000       -1.2476110000       -0.7305450000     
    C    0.8461480000       -0.2940530000        1.4791690000     
    C    2.0945370000       -1.7406750000       -0.5331010000     
    C    2.1312380000       -0.7919280000        1.6736540000     
    C    2.7634550000       -1.5193940000        0.6648420000     
    H    0.2856540000       -1.4205420000       -1.6644930000     
    H    0.3595810000        0.2726420000        2.2680140000     
    H    2.5876310000       -2.3048340000       -1.3188690000     
    H    3.7664930000       -1.8982560000        0.8316750000     
    O    2.8224370000       -0.5915570000        2.8404090000     
    H    2.2662270000       -0.0767480000        3.4375580000     
*

