!B3LYP D4 DEF2-SVP OPT FREQ MBIS
%PAL
NPROCS 12 
END

%Method
WriteJSONPropertyfile True
End

%cpcm SMD TRUE
SMDSOLVENT "WATER"
end


* xyz -1 1
    C   -2.0916060000       -0.3547140000       -0.0080740000     
    O   -2.9857310000        0.5317150000        0.0576060000     
    O   -2.2910600000       -1.5976620000       -0.0817920000     
    C   -0.6475810000        0.1175130000       -0.0019910000     
    C   -0.3381380000        1.4789680000        0.0005950000     
    C    0.4010650000       -0.8065820000       -0.0013020000     
    C    0.9884970000        1.8976480000        0.0002660000     
    C    1.7372400000       -0.4083180000        0.0045630000     
    C    2.0174260000        0.9630720000        0.0035450000     
    H   -1.1460760000        2.2035650000        0.0012340000     
    H    1.2225690000        2.9581540000       -0.0011910000     
    H    3.0522980000        1.2957300000        0.0061750000     
    C    2.8507980000       -1.4101080000        0.0047320000     
    H    2.4736100000       -2.4313810000        0.0826110000     
    H    3.4466360000       -1.3435020000       -0.9111770000     
    H    3.5409280000       -1.2407190000        0.8366470000     
    H    0.1592690000       -1.8658670000       -0.0027560000     
*