!B3LYP D4 DEF2-SVP OPT FREQ MBIS
%PAL
NPROCS 12 
END

%Method
WriteJSONPropertyfile True
End

%cpcm SMD TRUE
SMDSOLVENT "WATER"
end

* xyz -1   1
    C   -2.2468040000       -0.7707740000       -0.0227650000     
    O   -3.2505440000       -0.4746940000        0.6787480000     
    O   -2.1398970000       -1.7748820000       -0.7758620000     
    C   -1.0862760000        0.2106310000        0.0130080000     
    C    0.2857790000       -0.1913900000       -0.0123580000     
    C   -1.3865960000        1.5585210000        0.0452040000     
    C    0.6990110000       -1.5487160000        0.0181370000     
    C    1.3050650000        0.8186410000       -0.0194560000     
    C   -0.3864140000        2.5478250000        0.0105130000     
    H   -2.4308160000        1.8524160000        0.0859970000     
    C    2.0307810000       -1.8884980000        0.0227230000     
    H   -0.0595970000       -2.3207710000        0.0324290000     
    C    2.6680310000        0.4326380000       -0.0197190000     
    C    0.9369200000        2.1847940000       -0.0223250000     
    H   -0.6676450000        3.5961290000        0.0119790000     
    C    3.0281950000       -0.8916830000       -0.0017310000     
    H    2.3193640000       -2.9345800000        0.0477030000     
    H    3.4245490000        1.2127630000       -0.0289340000     
    H    1.7221870000        2.9354190000       -0.0440140000     
    H    4.0757780000       -1.1747870000       -0.0010610000     
*

