!B3LYP D4 DEF2-SVP OPT FREQ MBIS
%PAL
NPROCS 12 
END

%Method
WriteJSONPropertyfile True
End

%cpcm SMD TRUE
SMDSOLVENT "WATER"
end

* xyz -1   1
    C   -0.0074910000        0.6116690000       -0.0000020000     
    O   -0.8513100000        1.5513260000        0.0000010000     
    O    1.2474800000        0.7368750000        0.0000010000     
    C   -0.5807780000       -0.7832390000       -0.0000010000     
    H   -1.6680250000       -0.8484300000        0.0000000000     
    C    0.1590750000       -1.8887710000        0.0000000000     
    H    1.2442960000       -1.8235300000       -0.0000010000     
    H   -0.2774380000       -2.8832400000        0.0000010000     
*

