!B3LYP D4 DEF2-SVP OPT FREQ MBIS
%PAL
NPROCS 12 
END

%Method
WriteJSONPropertyfile True
End

%cpcm SMD TRUE
SMDSOLVENT "WATER"
end

* xyz -1   1
    C   -1.4461110000       -0.3398040000        0.0484500000     
    O   -1.7409300000        0.0556670000       -1.1135070000     
    O   -2.2709370000       -0.5480910000        0.9812890000     
    C    0.0150350000       -0.5861980000        0.3509960000     
    C    1.0006340000       -0.3789790000       -0.6139050000     
    C    0.4241860000       -1.0307550000        1.6143560000     
    C    2.3485840000       -0.5985980000       -0.3481850000     
    C    1.7580270000       -1.2566850000        1.9024230000     
    C    2.7321870000       -1.0381320000        0.9213420000     
    H    0.7006510000       -0.0365230000       -1.5997200000     
    H   -0.3287720000       -1.1989570000        2.3774490000     
    H    3.0858550000       -0.4258520000       -1.1228110000     
    H    2.0742510000       -1.6013110000        2.8818960000     
    O    4.0188210000       -1.2794050000        1.2960060000     
    C    5.0484320000       -1.0794420000        0.3183570000     
    H    5.0152930000       -0.0432360000       -0.0431610000     
    H    4.8705490000       -1.7389230000       -0.5413900000     
    C    6.3679890000       -1.3834910000        0.9797790000     
    H    6.4899700000       -0.7255130000        1.8486900000     
    H    6.3460280000       -2.4096300000        1.3666470000     
    C    7.5438540000       -1.2112230000        0.0306820000     
    H    7.5397570000       -0.1902040000       -0.3708580000     
    H    7.4135960000       -1.8742710000       -0.8333720000     
    C    8.8751930000       -1.4935490000        0.7002090000     
    H    9.7120630000       -1.3665570000        0.0088750000     
    H    9.0428670000       -0.8209750000        1.5471840000     
    H    8.9174390000       -2.5176290000        1.0842720000     
*

