!B3LYP D4 DEF2-SVP OPT FREQ MBIS
%PAL
NPROCS 12 
END

%Method
WriteJSONPropertyfile True
End

%cpcm SMD TRUE
SMDSOLVENT "WATER"
end

*xyz -1   1
    C   -1.2735430000       -0.0420290000       -0.0449190000     
    O   -1.4357280000        1.1739650000       -0.3384290000     
    O   -2.1967570000       -0.8907780000        0.1081390000     
    C    0.1548660000       -0.5554140000        0.1565590000     
    H    0.2373640000       -0.8905340000        1.1997500000     
    H    0.2667550000       -1.4709380000       -0.4387690000     
    C    1.2715050000        0.4204170000       -0.1653240000     
    H    1.1568200000        1.3194480000        0.4512500000     
    H    1.1639080000        0.7621350000       -1.2019740000     
    C    2.6510850000       -0.1780110000        0.0391380000     
    H    3.4475540000        0.5302960000       -0.2056080000     
    H    2.8000520000       -0.4911660000        1.0779360000     
    H    2.7962030000       -1.0637430000       -0.5880070000     
*

