!B3LYP D4 DEF2-SVP OPT FREQ MBIS
%PAL
NPROCS 12 
END

%Method
WriteJSONPropertyfile True
End

%cpcm SMD TRUE
SMDSOLVENT "WATER"
end

* xyz -1   1
    C   -1.1713730000        0.0433950000        0.0080550000     
    O   -1.0628760000        1.2447730000       -0.2999270000     
    O   -2.1899020000       -0.6320750000        0.2581240000     
    C    0.1428320000       -0.7984890000        0.1102330000     
    H    0.2417060000       -1.2191970000        1.1086450000     
    H    0.1351510000       -1.5830820000       -0.6444030000     
    N    1.3228290000        0.0482310000       -0.1398830000     
    O    1.6692380000        0.2218410000       -1.3049580000     
    O    1.8386410000        0.6198790000        0.8172220000     
*

