!B3LYP D4 DEF2-SVP OPT FREQ MBIS
%PAL
NPROCS 12 
END

%Method
WriteJSONPropertyfile True
End

%cpcm SMD TRUE
SMDSOLVENT "WATER"
end

* xyz -1   1
    C   -2.3321750000        0.0451000000        0.0294910000     
    O   -2.4651580000        1.0890970000        0.7127340000     
    O   -3.2066860000       -0.5129050000       -0.6858780000     
    C   -0.9810530000       -0.6665630000        0.0317300000     
    H   -1.1293130000       -1.6976720000        0.3908550000     
    H   -0.6228980000       -0.7505980000       -1.0068600000     
    O   -0.0209360000       -0.0026040000        0.8334600000     
    C    1.1953040000       -0.7311580000        0.8852520000     
    H    1.6032520000       -0.8545740000       -0.1323700000     
    H    1.0040850000       -1.7464790000        1.2721700000     
    C    2.1777850000       -0.0024040000        1.7696880000     
    H    1.7235270000        0.1393750000        2.7568240000     
    H    2.3480830000        0.9998510000        1.3605220000     
    C    3.4900930000       -0.7528240000        1.8953300000     
    H    3.9633390000       -0.8948800000        0.9189880000     
    H    4.2005340000       -0.2175470000        2.5290470000     
    H    3.3419280000       -1.7445460000        2.3332520000     
*

