!B3LYP D4 DEF2-SVP OPT FREQ MBIS
%PAL
NPROCS 12 
END

%Method
WriteJSONPropertyfile True
End

%cpcm SMD TRUE
SMDSOLVENT "WATER"
end

* xyz -1   1
    C    1.0265580000        0.0543930000        0.0001660000     
    O    1.5425100000        0.7946630000        0.8842360000     
    O    1.6725070000       -0.6275810000       -0.8407820000     
    C   -0.5248260000       -0.0182970000       -0.0186640000     
    C   -1.0380070000       -0.8428020000       -1.1920130000     
    H   -0.6586080000       -1.8679350000       -1.1577240000     
    H   -2.1327830000       -0.8905360000       -1.1852520000     
    H   -0.7295140000       -0.4115470000       -2.1491080000     
    C   -0.9783860000       -0.6598920000        1.2948010000     
    H   -0.6312570000       -0.0809580000        2.1550700000     
    H   -2.0711680000       -0.7186580000        1.3468080000     
    H   -0.5863680000       -1.6775990000        1.3987530000     
    C   -1.0868880000        1.4005500000       -0.1060130000     
    H   -2.1824920000        1.3903150000       -0.0951800000     
    H   -0.7463530000        2.0099660000        0.7349800000     
    H   -0.7687510000        1.8988360000       -1.0282630000     
*

