!B3LYP D4 DEF2-SVP OPT FREQ MBIS
%PAL
NPROCS 12 
END

%Method
WriteJSONPropertyfile True
End

%cpcm SMD TRUE
SMDSOLVENT "WATER"
end

* xyz -1   1
    C   -1.2660870000       -0.0044500000       -0.0676010000     
    O   -1.4784610000        0.3257620000       -1.2673030000     
    O   -2.1310840000       -0.0152240000        0.8507790000     
    C    0.1333440000       -0.4814810000        0.2771750000     
    C    0.8089030000       -1.2343250000       -0.6848140000     
    C    0.7580420000       -0.2492630000        1.5155150000     
    C    2.0593530000       -1.7993300000       -0.4585220000     
    C    2.0205490000       -0.8234220000        1.7673170000     
    C    2.6771250000       -1.5908760000        0.7880070000     
    H    0.3273210000       -1.3904730000       -1.6468910000     
    C    0.1432550000        0.6398220000        2.5592030000     
    H   -0.6266820000        1.2824100000        2.1371950000     
    H   -0.3288350000        0.0649320000        3.3648690000     
    H    0.8995840000        1.2737030000        3.0301700000     
    C    2.6706560000       -0.6031380000        3.1043130000     
    H    3.4091440000       -1.3715390000        3.3338460000     
    H    3.1893520000        0.3624450000        3.1537280000     
    H    1.9369190000       -0.6031360000        3.9134750000     
    C    4.0324380000       -2.1716220000        1.0716830000     
    H    4.7313080000       -1.4128370000        1.4364660000     
    H    3.9910660000       -2.9473450000        1.8446440000     
    H    4.4784020000       -2.6239920000        0.1864750000     
    C    2.7110330000       -2.6123530000       -1.5380570000     
    H    3.6616850000       -2.1784740000       -1.8654180000     
    H    2.9345250000       -3.6325670000       -1.2095480000     
    H    2.0634120000       -2.6824820000       -2.4142220000     
*

