!B3LYP D4 DEF2-SVP OPT FREQ MBIS
%PAL
NPROCS 12 
END

%Method
WriteJSONPropertyfile True
End

%cpcm SMD TRUE
SMDSOLVENT "WATER"
end

* xyz -1   1
    C    0.8612690000        0.0443930000        0.0492730000     
    O    1.1466160000        1.1002070000        0.6675350000     
    O    1.6256390000       -0.8874810000       -0.2909210000     
    C   -0.6344550000       -0.1264610000       -0.3442190000     
    O   -0.9934890000       -1.0982240000       -0.9887920000     
    C   -1.5810030000        0.9419320000        0.0928060000     
    H   -1.5266380000        1.0717160000        1.1768990000     
    H   -1.2779580000        1.9010330000       -0.3363340000     
    H   -2.6033700000        0.7089300000       -0.2051050000     
*

