!B3LYP D4 DEF2-SVP OPT FREQ MBIS
%PAL
NPROCS 12 
END

%Method
WriteJSONPropertyfile True
End

%cpcm SMD TRUE
SMDSOLVENT "WATER"
end

* xyz -1   1
    C    1.6091010000       -0.0243060000        0.0800710000     
    O    2.2159710000        1.0743330000       -0.0648180000     
    O    2.1158370000       -1.0825630000        0.5458190000     
    C    0.1510220000       -0.0748220000       -0.3782670000     
    C   -0.7138450000       -1.1827800000        0.2184090000     
    C   -0.6555410000        1.2117660000       -0.1152830000     
    H    0.1868850000       -0.2351080000       -1.4673130000     
    C   -2.1261610000       -0.7500170000       -0.1500090000     
    H   -0.5911660000       -1.1946830000        1.3099600000     
    H   -0.4498610000       -2.1790960000       -0.1460310000     
    C   -2.1190430000        0.7645130000        0.0886140000     
    H   -0.5477200000        1.9321090000       -0.9303250000     
    H   -0.2735210000        1.7098350000        0.7818780000     
    H   -2.3030360000       -0.9631920000       -1.2114620000     
    H   -2.9079120000       -1.2674080000        0.4133700000     
    H   -2.8167390000        1.2903040000       -0.5688810000     
    H   -2.4401950000        0.9806810000        1.1127600000     
*

