!B3LYP D4 DEF2-SVP OPT FREQ MBIS
%PAL
NPROCS 12 
END

%Method
WriteJSONPropertyfile True
End

%cpcm SMD TRUE
SMDSOLVENT "WATER"
end

* xyz -1   1
    C   -1.2259520000        0.0542010000        0.0739350000     
    O   -1.2828350000        1.2843270000       -0.1679110000     
    O   -2.1893100000       -0.7137810000        0.3381870000     
    C    0.1367570000       -0.6333470000        0.0567850000     
    H    0.2953450000       -1.1273680000        1.0287380000     
    H    0.1159940000       -1.4364420000       -0.6974350000     
    O    1.1942490000        0.2689430000       -0.2150840000     
    C    2.4466330000       -0.3981620000       -0.2157690000     
    H    2.4366010000       -1.2093100000       -0.9629930000     
    H    2.6147040000       -0.8754960000        0.7644220000     
    C    3.5445110000        0.5912480000       -0.5201210000     
    H    3.5029030000        1.4084760000        0.2110090000     
    H    3.3578980000        1.0450230000       -1.5014650000     
    C    4.9221240000       -0.0530010000       -0.4990680000     
    H    4.9427980000       -0.8857660000       -1.2134800000     
    H    5.0949190000       -0.5024620000        0.4867460000     
    C    6.0358700000        0.9256810000       -0.8192630000     
    H    6.0573310000        1.7518810000       -0.1014250000     
    H    7.0180590000        0.4466420000       -0.7959760000     
    H    5.9069600000        1.3637090000       -1.8139150000     
*

