!B3LYP D4 DEF2-SVP OPT FREQ MBIS


%Method
WriteJSONPropertyfile True
End

%cpcm SMD TRUE
SMDSOLVENT "WATER"
end

*xyz -1   1
    C    2.6977170000       -0.0460600000        0.1411990000     
    O    3.2331280000       -1.1875630000        0.2027720000     
    O    3.3093330000        1.0557140000        0.2094450000     
    C    1.1954600000        0.0041960000       -0.0315250000     
    C    0.4365860000       -1.1700430000       -0.1168810000     
    C    0.5180110000        1.2205960000       -0.1100860000     
    C   -0.9373480000       -1.1319800000       -0.2740560000     
    C   -0.8628230000        1.2850910000       -0.2678300000     
    C   -1.5964790000        0.0998530000       -0.3516590000     
    H    0.9450150000       -2.1268960000       -0.0566580000     
    H    1.0886500000        2.1416810000       -0.0462330000     
    H   -1.3555460000        2.2482200000       -0.3255810000     
    H   -1.5246230000       -2.0424200000       -0.3384550000     
    O   -2.9506810000        0.0413750000       -0.5068970000     
    C   -3.6536030000        1.2777600000       -0.5592910000     
    H   -3.3433320000        1.8785050000       -1.4199670000     
    H   -4.7062460000        1.0200990000       -0.6622130000     
    H   -3.5107980000        1.8569420000        0.3582750000     
*

